p cnf 736
-5 -65
-6 -25
-7 -28
-8 -77
-9 -83
-10 -104
-11 -123
-12 -141
-13 -151
-14 -170
-15 -189
-16 -207
-17 -217
-18 -238
-19 -244
-20 1
-20 -8
-1 8 20
-21 2
-21 -9
-2 9 21
-22 -20
-22 21
20 -21 22
-23 -5
-23 20
5 -20 23
-24 5
-24 6
-5 -6 24
-25 -23
-25 -24
23 24 25
-26 -5
-26 22
5 -22 26
-27 5
-27 7
-5 -7 27
-28 -26
-28 -27
26 27 28
-29 1
-29 -25
-1 25 29
-30 2
-30 -28
-2 28 30
-31 10
-31 -11
-10 11 31
-32 -12
-32 -13
12 13 32
-33 31
-33 32
-31 -32 33
-34 -10
-34 -11
10 11 34
-35 -12
-35 13
12 -13 35
-36 34
-36 35
-34 -35 36
-37 -33
-37 -36
33 36 37
-38 29
-38 -37
-29 37 38
-39 14
-39 -15
-14 15 39
-40 -16
-40 -17
16 17 40
-41 39
-41 40
-39 -40 41
-42 -14
-42 -15
14 15 42
-43 -16
-43 17
16 -17 43
-44 42
-44 43
-42 -43 44
-45 -41
-45 -44
41 44 45
-46 30
-46 -45
-30 45 46
-47 -38
-47 -46
38 46 47
-48 -10
-48 11
10 -11 48
-49 12
-49 -13
-12 13 49
-50 48
-50 49
-48 -49 50
-51 12
-51 13
-12 -13 51
-52 31
-52 51
-31 -51 52
-53 -50
-53 -52
50 52 53
-54 29
-54 -53
-29 53 54
-55 -14
-55 15
14 -15 55
-56 16
-56 -17
-16 17 56
-57 55
-57 56
-55 -56 57
-58 16
-58 17
-16 -17 58
-59 39
-59 58
-39 -58 59
-60 -57
-60 -59
57 59 60
-61 30
-61 -60
-30 60 61
-62 -54
-62 -61
54 61 62
-63 5
-63 62
-5 -62 63
-64 47
-64 63
-47 -63 64
-65 47
-65 -64
-47 64 65
-66 -8
-66 9
8 -9 66
-67 34
-67 51
-34 -51 67
-68 29
-68 67
-29 -67 68
-69 42
-69 58
-42 -58 69
-70 30
-70 69
-30 -69 70
-71 -68
-71 -70
68 70 71
-72 31
-72 49
-31 -49 72
-73 29
-73 72
-29 -72 73
-74 8
-74 -71
-8 71 74
-75 8
-75 -74
-8 74 75
-76 -73
-76 75
73 -75 76
-77 -73
-77 -76
73 76 77
-78 39
-78 56
-39 -56 78
-79 30
-79 78
-30 -78 79
-80 66
-80 -71
-66 71 80
-81 9
-81 -80
-9 80 81
-82 -79
-82 81
79 -81 82
-83 -79
-83 -82
79 82 83
-84 -8
-84 -9
8 9 84
-85 -18
-85 19
18 -19 85
-86 -11
-86 -34
11 34 86
-87 12
-87 34
-12 -34 87
-88 -12
-88 -86
12 86 88
-89 -87
-89 -88
87 88 89
-90 -3
-90 10
3 -10 90
-91 10
-91 -90
-10 90 91
-92 11
-92 -91
-11 91 92
-93 3
-93 -10
-3 10 93
-94 -11
-94 93
11 -93 94
-95 -48
-95 -94
48 94 95
-96 12
-96 92
-12 -92 96
-97 -12
-97 -95
12 95 97
-98 -96
-98 -97
96 97 98
-99 13
-99 -89
-13 89 99
-100 -13
-100 -98
13 98 100
-101 -99
-101 -100
99 100 101
-102 29
-102 -101
-29 101 102
-103 10
-103 -29
-10 29 103
-104 -102
-104 -103
102 103 104
-105 10
-105 84
-10 -84 105
-106 -11
-106 105
11 -105 106
-107 -48
-107 -106
48 106 107
-108 12
-108 31
-12 -31 108
-109 -12
-109 -107
12 107 109
-110 -108
-110 -109
108 109 110
-111 11
-111 -92
-11 92 111
-112 -10
-112 -85
10 85 112
-113 11
-113 112
-11 -112 113
-114 -31
-114 -113
31 113 114
-115 12
-115 -111
-12 111 115
-116 -12
-116 -114
12 114 116
-117 -115
-117 -116
115 116 117
-118 13
-118 -110
-13 110 118
-119 -13
-119 -117
13 117 119
-120 -118
-120 -119
118 119 120
-121 29
-121 -120
-29 120 121
-122 11
-122 -29
-11 29 122
-123 -121
-123 -122
121 122 123
-124 10
-124 -84
-10 84 124
-125 10
-125 11
-10 -11 125
-126 -11
-126 124
11 -124 126
-127 -125
-127 -126
125 126 127
-128 -11
-128 12
11 -12 128
-129 -12
-129 -127
12 127 129
-130 -128
-130 -129
128 129 130
-131 -10
-131 85
10 -85 131
-132 -10
-132 -131
10 131 132
-133 11
-133 -132
-11 132 133
-134 -12
-134 133
12 -133 134
-135 -115
-135 -134
115 134 135
-136 13
-136 -130
-13 130 136
-137 -13
-137 -135
13 135 137
-138 -136
-138 -137
136 137 138
-139 29
-139 -138
-29 138 139
-140 12
-140 -29
-12 29 140
-141 -139
-141 -140
139 140 141
-142 12
-142 -128
-12 128 142
-143 3
-143 10
-3 -10 143
-144 11
-144 143
-11 -143 144
-145 12
-145 144
-12 -144 145
-146 13
-146 -142
-13 142 146
-147 -13
-147 145
13 -145 147
-148 -146
-148 -147
146 147 148
-149 29
-149 -148
-29 148 149
-150 13
-150 -29
-13 29 150
-151 -149
-151 -150
149 150 151
-152 -15
-152 -42
15 42 152
-153 16
-153 42
-16 -42 153
-154 -16
-154 -152
16 152 154
-155 -153
-155 -154
153 154 155
-156 -4
-156 14
4 -14 156
-157 14
-157 -156
-14 156 157
-158 15
-158 -157
-15 157 158
-159 4
-159 -14
-4 14 159
-160 -15
-160 159
15 -159 160
-161 -55
-161 -160
55 160 161
-162 16
-162 158
-16 -158 162
-163 -16
-163 -161
16 161 163
-164 -162
-164 -163
162 163 164
-165 17
-165 -155
-17 155 165
-166 -17
-166 -164
17 164 166
-167 -165
-167 -166
165 166 167
-168 30
-168 -167
-30 167 168
-169 14
-169 -30
-14 30 169
-170 -168
-170 -169
168 169 170
-171 14
-171 84
-14 -84 171
-172 -15
-172 171
15 -171 172
-173 -55
-173 -172
55 172 173
-174 16
-174 39
-16 -39 174
-175 -16
-175 -173
16 173 175
-176 -174
-176 -175
174 175 176
-177 15
-177 -158
-15 158 177
-178 -14
-178 -85
14 85 178
-179 15
-179 178
-15 -178 179
-180 -39
-180 -179
39 179 180
-181 16
-181 -177
-16 177 181
-182 -16
-182 -180
16 180 182
-183 -181
-183 -182
181 182 183
-184 17
-184 -176
-17 176 184
-185 -17
-185 -183
17 183 185
-186 -184
-186 -185
184 185 186
-187 30
-187 -186
-30 186 187
-188 15
-188 -30
-15 30 188
-189 -187
-189 -188
187 188 189
-190 14
-190 -84
-14 84 190
-191 14
-191 15
-14 -15 191
-192 -15
-192 190
15 -190 192
-193 -191
-193 -192
191 192 193
-194 -15
-194 16
15 -16 194
-195 -16
-195 -193
16 193 195
-196 -194
-196 -195
194 195 196
-197 -14
-197 85
14 -85 197
-198 -14
-198 -197
14 197 198
-199 15
-199 -198
-15 198 199
-200 -16
-200 199
16 -199 200
-201 -181
-201 -200
181 200 201
-202 17
-202 -196
-17 196 202
-203 -17
-203 -201
17 201 203
-204 -202
-204 -203
202 203 204
-205 30
-205 -204
-30 204 205
-206 16
-206 -30
-16 30 206
-207 -205
-207 -206
205 206 207
-208 16
-208 -194
-16 194 208
-209 4
-209 14
-4 -14 209
-210 15
-210 209
-15 -209 210
-211 16
-211 210
-16 -210 211
-212 17
-212 -208
-17 208 212
-213 -17
-213 211
17 -211 213
-214 -212
-214 -213
212 213 214
-215 30
-215 -214
-30 214 215
-216 17
-216 -30
-17 30 216
-217 -215
-217 -216
215 216 217
-218 32
-218 125
-32 -125 218
-219 29
-219 218
-29 -218 219
-220 40
-220 191
-40 -191 220
-221 30
-221 220
-30 -220 221
-222 -219
-222 -221
219 221 222
-223 35
-223 48
-35 -48 223
-224 29
-224 223
-29 -223 224
-225 43
-225 55
-43 -55 225
-226 30
-226 225
-30 -225 226
-227 -224
-227 -226
224 226 227
-228 18
-228 -19
-18 19 228
-229 -85
-229 -228
85 228 229
-230 18
-230 19
-18 -19 230
-231 -18
-231 -19
18 19 231
-232 -230
-232 -231
230 231 232
-233 -18
-233 -227
18 227 233
-234 18
-234 227
-18 -227 234
-235 -233
-235 -234
233 234 235
-236 -18
-236 -222
18 222 236
-237 222
-237 -235
-222 235 237
-238 -236
-238 -237
236 237 238
-239 -227
-239 -232
227 232 239
-240 19
-240 227
-19 -227 240
-241 -239
-241 -240
239 240 241
-242 -222
-242 -229
222 229 242
-243 222
-243 -241
-222 241 243
-244 -242
-244 -243
242 243 244
-245 49
-245 125
-49 -125 245
-246 -8
-246 245
8 -245 246
-247 56
-247 191
-56 -191 247
-248 -9
-248 247
9 -247 248
-249 246
-249 -248
-246 248 249
-250 -246
-250 248
246 -248 250
-251 -249
-251 -250
249 250 251
-252 246
-252 248
-246 -248 252
-253 -251
-253 252
251 -252 253
-254 -84
-254 -85
84 85 254
-255 -222
-255 230
222 -230 255
-256 -227
-256 231
227 -231 256
-257 -253
-257 -255
253 255 257
-258 -254
-258 -256
254 256 258
-259 257
-259 258
-257 -258 259
-259
